(set-logic HORN)
(set-info :source |
    Benchmark: C_VC
    Output by Princess (http://www.philipp.ruemmer.org/princess.shtml)
|)
(set-info :status unsat)
(declare-heap Heap Addr HeapObject
 defObj
 ((HeapObject 0) (TSLL 0)) (
  (
   (O_Int (getInt Int))
   (O_UInt (getUInt Int))
   (O_Addr (getAddr Addr))
   (O_TSLL (getTSLL TSLL))
   (defObj)
  )
  (
   (TSLL (next Addr) (prev Addr) (data Int))
  )
))
(declare-fun inv_main12 (Heap Addr Addr Int) Bool)
(declare-fun inv_main13 (Heap Addr Addr Int Addr) Bool)
(declare-fun inv_main14 (Heap Addr Addr Int) Bool)
(declare-fun inv_main15 (Heap Addr Addr Int) Bool)
(declare-fun inv_main2 (Heap) Bool)
(declare-fun inv_main22 (Heap Addr Addr Int) Bool)
(declare-fun inv_main23 (Heap Addr Addr Int) Bool)
(declare-fun inv_main27 (Heap Addr Addr Int) Bool)
(declare-fun inv_main3 (Heap Addr) Bool)
(declare-fun inv_main30 (Heap Addr Addr Int) Bool)
(declare-fun inv_main31 (Heap Addr Addr Int) Bool)
(declare-fun inv_main32 (Heap Addr Addr Int) Bool)
(declare-fun inv_main33 (Heap Addr Addr Int Addr) Bool)
(declare-fun inv_main38 (Heap Addr Addr Int) Bool)
(declare-fun inv_main4 (Heap Addr) Bool)
(declare-fun inv_main42 (Heap Addr Addr Int) Bool)
(declare-fun inv_main45 (Heap Addr Addr Int) Bool)
(declare-fun inv_main49 (Heap Addr Addr Int Addr) Bool)
(declare-fun inv_main5 (Heap Addr) Bool)
(declare-fun inv_main50 (Heap Addr Addr Int Addr) Bool)
(declare-fun inv_main51 (Heap Addr Addr Int Addr) Bool)
(declare-fun inv_main52 (Heap Addr Addr Int Addr) Bool)
(declare-fun inv_main54 (Heap Addr Addr Int Addr) Bool)
(declare-fun inv_main55 (Heap Addr Addr Int Addr) Bool)
(declare-fun inv_main57 (Heap Addr Addr Int Addr) Bool)
(declare-fun inv_main58 (Heap Addr Addr Int Addr) Bool)
(declare-fun inv_main59 (Heap Addr Addr Int Addr Addr) Bool)
(declare-fun inv_main61 (Heap Addr Addr Int Addr) Bool)
(declare-fun inv_main62 (Heap Addr Addr Int Addr) Bool)
(declare-fun inv_main63 (Heap Addr Addr Int Addr) Bool)
(declare-fun inv_main66 (Heap Addr Addr Int Addr) Bool)
(declare-fun inv_main70 (Heap Addr Addr Int Addr) Bool)
(declare-fun inv_main74 (Heap Addr Addr Int Addr) Bool)
(declare-fun inv_main76 (Heap Addr Addr Int Addr) Bool)
(declare-fun inv_main8 (Heap Addr Addr Int) Bool)
(declare-fun inv_main81 (Heap Addr Addr Int Addr) Bool)
(declare-fun inv_main82 (Heap Addr Addr Int Addr) Bool)
(declare-fun inv_main86 (Heap Addr Addr Int Addr) Bool)
(declare-fun inv_main90 (Heap Addr Addr Int Addr) Bool)
(declare-fun inv_main92 (Heap Addr Addr Int Addr) Bool)
(declare-fun inv_main99 (Heap Addr Addr Int Addr) Bool)
(assert (forall ((var0 Heap)) (or (not (= var0 emptyHeap)) (inv_main2 var0))))
(assert (forall ((var0 Heap) (var1 Addr) (var2 Int) (var3 Addr) (var4 Addr) (var5 Heap)) (or (not (and (inv_main55 var5 var4 var3 var2 var1) (and (and (and (is-O_TSLL (read var5 var3)) (is-O_TSLL (read var5 (next (getTSLL (read var5 var3)))))) (is-O_TSLL (read var5 (next (getTSLL (read var5 var3)))))) (= var0 (write var5 (next (getTSLL (read var5 var3))) (O_TSLL (TSLL (next (getTSLL (read var5 (next (getTSLL (read var5 var3)))))) var1 (data (getTSLL (read var5 (next (getTSLL (read var5 var3))))))))))))) (inv_main57 var0 var4 var3 var2 var1))))
(assert (forall ((var0 Addr) (var1 Int) (var2 Addr) (var3 Addr) (var4 Heap) (var5 Int) (var6 Addr) (var7 Int) (var8 Addr) (var9 Addr) (var10 Heap) (var11 Int) (var12 Addr) (var13 Int) (var14 Addr) (var15 Addr) (var16 Heap)) (or (not (and (inv_main61 var16 var15 var14 var13 var12) (and (and (not (= var11 0)) (and (and (not (= var14 nullAddr)) (is-O_TSLL (read var16 var14))) (and (and (and (and (and (= var10 var16) (= var9 var15)) (= var8 var14)) (= var7 var13)) (= var6 var12)) (= var5 (data (getTSLL (read var16 var14))))))) (and (and (and (and (and (= var4 var10) (= var3 var9)) (= var2 var8)) (= var1 var7)) (= var0 var6)) (or (and (not (= var5 1)) (= var11 1)) (and (= var5 1) (= var11 0))))))) (inv_main63 var4 var3 var2 var1 var0))))
(assert (forall ((var0 Addr) (var1 Addr) (var2 Int) (var3 Addr) (var4 Addr) (var5 Heap) (var6 Addr) (var7 Int) (var8 Addr) (var9 Addr) (var10 Heap)) (or (not (and (inv_main74 var10 var9 var8 var7 var6) (and (is-O_TSLL (read var10 var8)) (and (and (and (and (and (= var5 var10) (= var4 var9)) (= var3 var8)) (= var2 var7)) (= var1 var6)) (= var0 (next (getTSLL (read var10 var8)))))))) (inv_main61 var5 var4 var0 var2 var1))))
(assert (forall ((var0 Int) (var1 Addr) (var2 Int) (var3 Addr) (var4 Addr) (var5 Heap) (var6 Addr) (var7 Int) (var8 Addr) (var9 Addr) (var10 Heap)) (or (not (and (inv_main54 var10 var9 var8 var7 var6) (and (and (and (is-O_TSLL (read var10 var8)) (is-O_TSLL (read var10 var8))) (and (and (and (and (= var5 (write var10 var8 (O_TSLL (TSLL var6 (prev (getTSLL (read var10 var8))) (data (getTSLL (read var10 var8))))))) (= var4 var9)) (= var3 var8)) (= var2 var7)) (= var1 var6))) (= var0 0)))) (inv_main61 var5 var4 var4 var0 var1))))
(assert (forall ((var0 Int) (var1 Addr) (var2 Int) (var3 Addr) (var4 Addr) (var5 Heap) (var6 Addr) (var7 Int) (var8 Addr) (var9 Addr) (var10 Heap)) (or (not (and (inv_main58 var10 var9 var8 var7 var6) (and (and (and (is-O_TSLL (read var10 var8)) (is-O_TSLL (read var10 var8))) (and (and (and (and (= var5 (write var10 var8 (O_TSLL (TSLL var6 (prev (getTSLL (read var10 var8))) (data (getTSLL (read var10 var8))))))) (= var4 var9)) (= var3 var8)) (= var2 var7)) (= var1 var6))) (= var0 0)))) (inv_main61 var5 var4 var4 var0 var1))))
(assert (forall ((var0 Heap) (var1 Int) (var2 Addr) (var3 Addr) (var4 Heap)) (or (not (and (inv_main12 var4 var3 var2 var1) (and (and (and (is-O_TSLL (read var4 var2)) (is-O_TSLL (read var4 (next (getTSLL (read var4 var2)))))) (is-O_TSLL (read var4 (next (getTSLL (read var4 var2)))))) (= var0 (write var4 (next (getTSLL (read var4 var2))) (O_TSLL (TSLL (next (getTSLL (read var4 (next (getTSLL (read var4 var2)))))) var2 (data (getTSLL (read var4 (next (getTSLL (read var4 var2))))))))))))) (inv_main14 var0 var3 var2 var1))))
(assert (forall ((var0 Addr) (var1 Int) (var2 Addr) (var3 Addr) (var4 Heap)) (or (not (and (inv_main62 var4 var3 var2 var1 var0) (not (= var2 nullAddr)))) (inv_main81 var4 var3 var2 var1 var0))))
(assert (forall ((var0 Heap) (var1 Addr) (var2 Heap)) (or (not (and (inv_main4 var2 var1) (and (and (is-O_TSLL (read var2 var1)) (is-O_TSLL (read var2 var1))) (= var0 (write var2 var1 (O_TSLL (TSLL (next (getTSLL (read var2 var1))) nullAddr (data (getTSLL (read var2 var1)))))))))) (inv_main5 var0 var1))))
(assert (forall ((var0 Addr) (var1 Addr) (var2 Addr) (var3 Heap) (var4 Int) (var5 Int) (var6 Addr) (var7 Int) (var8 Addr) (var9 Addr) (var10 Heap)) (or (not (and (inv_main82 var10 var9 var8 var7 var6) (and (not (= var5 1)) (and (and (= var4 1) (is-O_TSLL (read var10 var8))) (and (and (and (and (and (= var3 var10) (= var2 var9)) (= var1 var8)) (= var5 var7)) (= var0 var6)) (= var4 (data (getTSLL (read var10 var8))))))))) (inv_main92 var3 var2 var1 var5 var0))))
(assert (forall ((var0 Heap) (var1 Addr) (var2 Int) (var3 Addr) (var4 Addr) (var5 Heap)) (or (not (and (inv_main51 var5 var4 var3 var2 var1) (and (and (is-O_TSLL (read var5 var1)) (is-O_TSLL (read var5 var1))) (= var0 (write var5 var1 (O_TSLL (TSLL (next (getTSLL (read var5 var1))) var3 (data (getTSLL (read var5 var1)))))))))) (inv_main52 var0 var4 var3 var2 var1))))
(assert (forall ((var0 Addr) (var1 Int) (var2 Addr) (var3 Addr) (var4 Heap) (var5 Int) (var6 Addr) (var7 Int) (var8 Addr) (var9 Addr) (var10 Heap)) (or (not (and (inv_main66 var10 var9 var8 var7 var6) (and (and (not (= var5 0)) (is-O_TSLL (read var10 var8))) (and (and (and (and (and (= var4 var10) (= var3 var9)) (= var2 var8)) (= var1 var7)) (= var0 var6)) (= var5 (data (getTSLL (read var10 var8)))))))) (inv_main70 var4 var3 var2 var1 var0))))
(assert (forall ((var0 Addr) (var1 Int) (var2 Addr) (var3 Addr) (var4 Heap) (var5 Int) (var6 Addr) (var7 Addr) (var8 Heap)) (or (not (and (inv_main38 var8 var7 var6 var5) (and (is-O_TSLL (read var8 var6)) (and (and (and (and (= var4 var8) (= var3 var7)) (= var2 var6)) (= var1 var5)) (= var0 (next (getTSLL (read var8 var6)))))))) (inv_main42 var4 var3 var0 var1))))
(assert (forall ((var0 Addr) (var1 Int) (var2 Addr) (var3 Addr) (var4 Heap) (var5 Int) (var6 Addr) (var7 Addr) (var8 Heap)) (or (not (and (inv_main14 var8 var7 var6 var5) (and (is-O_TSLL (read var8 var6)) (and (and (and (and (= var4 var8) (= var3 var7)) (= var2 var6)) (= var1 var5)) (= var0 (next (getTSLL (read var8 var6)))))))) (inv_main15 var4 var3 var0 var1))))
(assert (forall ((var0 Addr) (var1 Int) (var2 Addr) (var3 Addr) (var4 Heap)) (or (not (and (inv_main30 var4 var3 var2 var1) (and (is-O_TSLL (read var4 var2)) (= var0 (next (getTSLL (read var4 var2))))))) (inv_main33 var4 var3 var2 var1 var0))))
(assert (forall ((var0 Int) (var1 Addr) (var2 Addr) (var3 Heap) (var4 Int) (var5 Int) (var6 Addr) (var7 Addr) (var8 Heap)) (or (not (and (inv_main42 var8 var7 var6 var5) (and (and (= var4 1) (is-O_TSLL (read var8 var6))) (and (and (and (and (= var3 var8) (= var2 var7)) (= var1 var6)) (= var0 var5)) (= var4 (data (getTSLL (read var8 var6)))))))) (inv_main45 var3 var2 var1 var0))))
(assert (forall ((var0 Addr) (var1 Int) (var2 Addr) (var3 Addr) (var4 Heap) (var5 Int) (var6 Addr) (var7 Addr) (var8 Heap)) (or (not (and (inv_main32 var8 var7 var6 var5) (and (is-O_TSLL (read var8 var6)) (and (and (and (and (= var4 var8) (= var3 var7)) (= var2 var6)) (= var1 var5)) (= var0 (next (getTSLL (read var8 var6)))))))) (inv_main30 var4 var3 var0 var1))))
(assert (forall ((var0 Int) (var1 Int) (var2 Int) (var3 Addr) (var4 Addr) (var5 Heap)) (or (not (and (inv_main8 var5 var4 var3 var2) (and (and (not (= nullAddr var4)) (and (= var1 0) (not (= var2 0)))) (= var0 0)))) (inv_main30 var5 var4 var4 var0))))
(assert (forall ((var0 Int) (var1 Addr) (var2 Int) (var3 Addr) (var4 Addr) (var5 Heap) (var6 Addr) (var7 Int) (var8 Addr) (var9 Addr) (var10 Heap)) (or (not (and (inv_main81 var10 var9 var8 var7 var6) (and (is-O_TSLL (read var10 var8)) (and (and (and (and (and (= var5 var10) (= var4 var9)) (= var3 var8)) (= var2 var7)) (= var1 var6)) (= var0 (data (getTSLL (read var10 var8)))))))) (inv_main82 var5 var4 var3 var0 var1))))
(assert (forall ((var0 Heap) (var1 Addr) (var2 Heap)) (or (not (and (inv_main3 var2 var1) (and (and (is-O_TSLL (read var2 var1)) (is-O_TSLL (read var2 var1))) (= var0 (write var2 var1 (O_TSLL (TSLL nullAddr (prev (getTSLL (read var2 var1))) (data (getTSLL (read var2 var1)))))))))) (inv_main4 var0 var1))))
(assert (forall ((var0 Addr) (var1 Int) (var2 Addr) (var3 Addr) (var4 Heap) (var5 Addr) (var6 Addr) (var7 Int) (var8 Addr) (var9 Addr) (var10 Heap)) (or (not (and (inv_main52 var10 var9 var8 var7 var6) (and (and (not (= var5 nullAddr)) (is-O_TSLL (read var10 var8))) (and (and (and (and (and (= var4 var10) (= var3 var9)) (= var2 var8)) (= var1 var7)) (= var0 var6)) (= var5 (next (getTSLL (read var10 var8)))))))) (inv_main55 var4 var3 var2 var1 var0))))
(assert (forall ((var0 Addr) (var1 TSLL) (var2 Heap) (var3 Heap)) (or (not (and (inv_main2 var3) (and (= var2 (newHeap (alloc var3 (O_TSLL var1)))) (= var0 (newAddr (alloc var3 (O_TSLL var1))))))) (inv_main3 var2 var0))))
(assert (forall ((var0 Int) (var1 Addr) (var2 Addr) (var3 Heap) (var4 Int) (var5 Int) (var6 Addr) (var7 Addr) (var8 Heap) (var9 Int) (var10 Addr) (var11 Int) (var12 Addr) (var13 Addr) (var14 Heap)) (or (not (and (inv_main33 var14 var13 var12 var11 var10) (and (and (not (= var9 0)) (and (and (and (not (= var10 nullAddr)) (is-O_TSLL (read var14 var12))) (is-O_TSLL (read var14 (next (getTSLL (read var14 var12)))))) (and (and (and (and (= var8 var14) (= var7 var13)) (= var6 var12)) (= var5 var11)) (= var4 (data (getTSLL (read var14 (next (getTSLL (read var14 var12)))))))))) (and (and (and (and (= var3 var8) (= var2 var7)) (= var1 var6)) (= var0 var5)) (or (and (= var4 0) (= var9 1)) (and (not (= var4 0)) (= var9 0))))))) (inv_main32 var3 var2 var1 var0))))
(assert (forall ((var0 Addr) (var1 Addr) (var2 Int) (var3 Addr) (var4 Addr) (var5 Heap) (var6 Addr) (var7 Int) (var8 Addr) (var9 Addr) (var10 Heap)) (or (not (and (inv_main90 var10 var9 var8 var7 var6) (and (is-O_TSLL (read var10 var8)) (and (and (and (and (and (= var5 var10) (= var4 var9)) (= var3 var8)) (= var2 var7)) (= var1 var6)) (= var0 (next (getTSLL (read var10 var8)))))))) (inv_main62 var5 var4 var0 var2 var1))))
(assert (forall ((var0 Addr) (var1 Int) (var2 Addr) (var3 Addr) (var4 Heap)) (or (not (and (inv_main61 var4 var3 var2 var1 var0) (= var2 nullAddr))) (inv_main62 var4 var3 var2 var1 var0))))
(assert (forall ((var0 Addr) (var1 Int) (var2 Addr) (var3 Addr) (var4 Heap) (var5 Int) (var6 Addr) (var7 Int) (var8 Addr) (var9 Addr) (var10 Heap) (var11 Int) (var12 Addr) (var13 Int) (var14 Addr) (var15 Addr) (var16 Heap)) (or (not (and (inv_main61 var16 var15 var14 var13 var12) (and (and (= var11 0) (and (and (not (= var14 nullAddr)) (is-O_TSLL (read var16 var14))) (and (and (and (and (and (= var10 var16) (= var9 var15)) (= var8 var14)) (= var7 var13)) (= var6 var12)) (= var5 (data (getTSLL (read var16 var14))))))) (and (and (and (and (and (= var4 var10) (= var3 var9)) (= var2 var8)) (= var1 var7)) (= var0 var6)) (or (and (not (= var5 1)) (= var11 1)) (and (= var5 1) (= var11 0))))))) (inv_main62 var4 var3 var2 var1 var0))))
(assert (forall ((var0 Addr) (var1 Addr) (var2 Addr) (var3 Heap) (var4 Int) (var5 Int) (var6 Addr) (var7 Int) (var8 Addr) (var9 Addr) (var10 Heap)) (or (not (and (inv_main82 var10 var9 var8 var7 var6) (and (= var5 1) (and (and (= var4 1) (is-O_TSLL (read var10 var8))) (and (and (and (and (and (= var3 var10) (= var2 var9)) (= var1 var8)) (= var5 var7)) (= var0 var6)) (= var4 (data (getTSLL (read var10 var8))))))))) (inv_main90 var3 var2 var1 var5 var0))))
(assert (forall ((var0 Int) (var1 Int) (var2 Addr) (var3 Addr) (var4 Heap)) (or (not (and (inv_main8 var4 var3 var2 var1) (and (= nullAddr var3) (and (= var0 0) (not (= var1 0)))))) (inv_main27 var4 var3 var3 var1))))
(assert (forall ((var0 Addr) (var1 Addr) (var2 Heap) (var3 Int) (var4 Int) (var5 Int) (var6 Addr) (var7 Addr) (var8 Heap)) (or (not (and (inv_main15 var8 var7 var6 var5) (and (= var4 0) (and (= var3 0) (and (and (is-O_TSLL (read var8 var6)) (is-O_TSLL (read var8 var6))) (and (and (and (= var2 (write var8 var6 (O_TSLL (TSLL nullAddr (prev (getTSLL (read var8 var6))) (data (getTSLL (read var8 var6))))))) (= var1 var7)) (= var0 var6)) (= var4 var5))))))) (inv_main23 var2 var1 var0 var4))))
(assert (forall ((var0 Addr) (var1 Int) (var2 Addr) (var3 Addr) (var4 Heap) (var5 Addr) (var6 Addr) (var7 Int) (var8 Addr) (var9 Addr) (var10 Heap)) (or (not (and (inv_main52 var10 var9 var8 var7 var6) (and (and (= var5 nullAddr) (is-O_TSLL (read var10 var8))) (and (and (and (and (and (= var4 var10) (= var3 var9)) (= var2 var8)) (= var1 var7)) (= var0 var6)) (= var5 (next (getTSLL (read var10 var8)))))))) (inv_main54 var4 var3 var2 var1 var0))))
(assert (forall ((var0 Addr) (var1 Addr) (var2 Int) (var3 Addr) (var4 Addr) (var5 Heap)) (or (not (and (inv_main57 var5 var4 var3 var2 var1) (and (is-O_TSLL (read var5 var3)) (= var0 (next (getTSLL (read var5 var3))))))) (inv_main59 var5 var4 var3 var2 var1 var0))))
(assert (forall ((var0 Addr) (var1 TSLL) (var2 Heap) (var3 Int) (var4 Int) (var5 Addr) (var6 Addr) (var7 Heap)) (or (not (and (inv_main8 var7 var6 var5 var4) (and (and (or (not (= var3 0)) (= var4 0)) (= var2 (newHeap (alloc var7 (O_TSLL var1))))) (= var0 (newAddr (alloc var7 (O_TSLL var1))))))) (inv_main13 var2 var6 var5 var4 var0))))
(assert (forall ((var0 Int) (var1 Addr) (var2 Addr) (var3 Heap) (var4 Addr) (var5 Int) (var6 Int) (var7 Addr) (var8 Addr) (var9 Heap)) (or (not (and (inv_main31 var9 var8 var7 var6) (and (not (= var5 0)) (and (and (not (= var4 nullAddr)) (is-O_TSLL (read var9 var7))) (and (and (and (and (= var3 var9) (= var2 var8)) (= var1 var7)) (= var0 var6)) (= var4 (next (getTSLL (read var9 var7))))))))) (inv_main38 var3 var2 var1 var0))))
(assert (forall ((var0 Heap) (var1 Addr) (var2 Int) (var3 Addr) (var4 Addr) (var5 Heap)) (or (not (and (inv_main49 var5 var4 var3 var2 var1) (and (and (is-O_TSLL (read var5 var1)) (is-O_TSLL (read var5 var1))) (= var0 (write var5 var1 (O_TSLL (TSLL (next (getTSLL (read var5 var1))) (prev (getTSLL (read var5 var1))) 1))))))) (inv_main50 var0 var4 var3 var2 var1))))
(assert (forall ((var0 Addr) (var1 Int) (var2 Addr) (var3 Addr) (var4 Heap)) (or (not (and (inv_main62 var4 var3 var2 var1 var0) (and (not (= var3 nullAddr)) (= var2 nullAddr)))) (inv_main99 var4 var3 var3 var1 var0))))
(assert (forall ((var0 Addr) (var1 Int) (var2 Addr) (var3 Heap) (var4 Addr) (var5 Addr) (var6 Int) (var7 Addr) (var8 Addr) (var9 Heap) (var10 Addr) (var11 Addr) (var12 Int) (var13 Addr) (var14 Addr) (var15 Heap)) (or (not (and (inv_main99 var15 var14 var13 var12 var11) (and (and (not (= var10 nullAddr)) (and (is-O_TSLL (read var15 var13)) (and (and (and (and (and (= var9 var15) (= var8 var14)) (= var7 var13)) (= var6 var12)) (= var5 var11)) (= var4 (next (getTSLL (read var15 var13))))))) (and (and (and (and (= var3 (write var9 var8 defObj)) (= var2 var8)) (= var10 var4)) (= var1 var6)) (= var0 var5))))) (inv_main99 var3 var10 var10 var1 var0))))
(assert (forall ((var0 Addr) (var1 Addr) (var2 Addr) (var3 Heap) (var4 Int) (var5 Int) (var6 Addr) (var7 Int) (var8 Addr) (var9 Addr) (var10 Heap)) (or (not (and (inv_main66 var10 var9 var8 var7 var6) (and (= var5 0) (and (and (= var4 0) (is-O_TSLL (read var10 var8))) (and (and (and (and (and (= var3 var10) (= var2 var9)) (= var1 var8)) (= var5 var7)) (= var0 var6)) (= var4 (data (getTSLL (read var10 var8))))))))) (inv_main74 var3 var2 var1 var5 var0))))
(assert (forall ((var0 Addr) (var1 Int) (var2 Addr) (var3 Addr) (var4 Heap)) (or (not (and (inv_main33 var4 var3 var2 var1 var0) (= var0 nullAddr))) (inv_main31 var4 var3 var2 var1))))
(assert (forall ((var0 Int) (var1 Addr) (var2 Addr) (var3 Heap) (var4 Int) (var5 Int) (var6 Addr) (var7 Addr) (var8 Heap) (var9 Int) (var10 Addr) (var11 Int) (var12 Addr) (var13 Addr) (var14 Heap)) (or (not (and (inv_main33 var14 var13 var12 var11 var10) (and (and (= var9 0) (and (and (and (not (= var10 nullAddr)) (is-O_TSLL (read var14 var12))) (is-O_TSLL (read var14 (next (getTSLL (read var14 var12)))))) (and (and (and (and (= var8 var14) (= var7 var13)) (= var6 var12)) (= var5 var11)) (= var4 (data (getTSLL (read var14 (next (getTSLL (read var14 var12)))))))))) (and (and (and (and (= var3 var8) (= var2 var7)) (= var1 var6)) (= var0 var5)) (or (and (= var4 0) (= var9 1)) (and (not (= var4 0)) (= var9 0))))))) (inv_main31 var3 var2 var1 var0))))
(assert (forall ((var0 Int) (var1 Addr) (var2 Addr) (var3 Heap) (var4 Int) (var5 Int) (var6 Addr) (var7 Addr) (var8 Heap)) (or (not (and (inv_main42 var8 var7 var6 var5) (and (and (not (= var4 1)) (is-O_TSLL (read var8 var6))) (and (and (and (and (= var3 var8) (= var2 var7)) (= var1 var6)) (= var0 var5)) (= var4 (data (getTSLL (read var8 var6)))))))) (inv_main31 var3 var2 var1 var0))))
(assert (forall ((var0 Addr) (var1 Addr) (var2 Addr) (var3 Heap) (var4 Int) (var5 Int) (var6 Addr) (var7 Int) (var8 Addr) (var9 Addr) (var10 Heap)) (or (not (and (inv_main66 var10 var9 var8 var7 var6) (and (not (= var5 0)) (and (and (= var4 0) (is-O_TSLL (read var10 var8))) (and (and (and (and (and (= var3 var10) (= var2 var9)) (= var1 var8)) (= var5 var7)) (= var0 var6)) (= var4 (data (getTSLL (read var10 var8))))))))) (inv_main76 var3 var2 var1 var5 var0))))
(assert (forall ((var0 Int) (var1 Int) (var2 Addr) (var3 Addr) (var4 Heap) (var5 Int) (var6 Int) (var7 Addr) (var8 Addr) (var9 Heap)) (or (not (and (inv_main15 var9 var8 var7 var6) (and (and (not (= var5 0)) (and (and (is-O_TSLL (read var9 var7)) (is-O_TSLL (read var9 var7))) (and (and (and (= var4 (write var9 var7 (O_TSLL (TSLL nullAddr (prev (getTSLL (read var9 var7))) (data (getTSLL (read var9 var7))))))) (= var3 var8)) (= var2 var7)) (= var1 var6)))) (= var0 1)))) (inv_main22 var4 var3 var2 var0))))
(assert (forall ((var0 Addr) (var1 Addr) (var2 Heap) (var3 Int) (var4 Int) (var5 Int) (var6 Addr) (var7 Addr) (var8 Heap)) (or (not (and (inv_main15 var8 var7 var6 var5) (and (not (= var4 0)) (and (= var3 0) (and (and (is-O_TSLL (read var8 var6)) (is-O_TSLL (read var8 var6))) (and (and (and (= var2 (write var8 var6 (O_TSLL (TSLL nullAddr (prev (getTSLL (read var8 var6))) (data (getTSLL (read var8 var6))))))) (= var1 var7)) (= var0 var6)) (= var4 var5))))))) (inv_main22 var2 var1 var0 var4))))
(assert (forall ((var0 Heap) (var1 Addr) (var2 Int) (var3 Addr) (var4 Addr) (var5 Heap)) (or (not (and (inv_main13 var5 var4 var3 var2 var1) (and (and (is-O_TSLL (read var5 var3)) (is-O_TSLL (read var5 var3))) (= var0 (write var5 var3 (O_TSLL (TSLL var1 (prev (getTSLL (read var5 var3))) (data (getTSLL (read var5 var3)))))))))) (inv_main12 var0 var4 var3 var2))))
(assert (forall ((var0 Heap) (var1 Int) (var2 Addr) (var3 Addr) (var4 Heap)) (or (not (and (inv_main22 var4 var3 var2 var1) (and (and (is-O_TSLL (read var4 var2)) (is-O_TSLL (read var4 var2))) (= var0 (write var4 var2 (O_TSLL (TSLL (next (getTSLL (read var4 var2))) (prev (getTSLL (read var4 var2))) 1))))))) (inv_main8 var0 var3 var2 var1))))
(assert (forall ((var0 Heap) (var1 Int) (var2 Addr) (var3 Addr) (var4 Heap)) (or (not (and (inv_main23 var4 var3 var2 var1) (and (and (is-O_TSLL (read var4 var2)) (is-O_TSLL (read var4 var2))) (= var0 (write var4 var2 (O_TSLL (TSLL (next (getTSLL (read var4 var2))) (prev (getTSLL (read var4 var2))) 0))))))) (inv_main8 var0 var3 var2 var1))))
(assert (forall ((var0 Int) (var1 Addr) (var2 Heap) (var3 Addr) (var4 Heap)) (or (not (and (inv_main5 var4 var3) (and (and (and (is-O_TSLL (read var4 var3)) (is-O_TSLL (read var4 var3))) (and (= var2 (write var4 var3 (O_TSLL (TSLL (next (getTSLL (read var4 var3))) (prev (getTSLL (read var4 var3))) 0)))) (= var1 var3))) (= var0 0)))) (inv_main8 var2 var1 var1 var0))))
(assert (forall ((var0 Heap) (var1 Addr) (var2 Int) (var3 Addr) (var4 Addr) (var5 Heap)) (or (not (and (inv_main50 var5 var4 var3 var2 var1) (and (and (is-O_TSLL (read var5 var1)) (is-O_TSLL (read var5 var1))) (= var0 (write var5 var1 (O_TSLL (TSLL nullAddr (prev (getTSLL (read var5 var1))) (data (getTSLL (read var5 var1)))))))))) (inv_main51 var0 var4 var3 var2 var1))))
(assert (forall ((var0 Heap) (var1 Addr) (var2 Addr) (var3 Int) (var4 Addr) (var5 Addr) (var6 Heap)) (or (not (and (inv_main59 var6 var5 var4 var3 var2 var1) (and (and (is-O_TSLL (read var6 var2)) (is-O_TSLL (read var6 var2))) (= var0 (write var6 var2 (O_TSLL (TSLL var1 (prev (getTSLL (read var6 var2))) (data (getTSLL (read var6 var2)))))))))) (inv_main58 var0 var5 var4 var3 var2))))
(assert (forall ((var0 Addr) (var1 Int) (var2 Addr) (var3 Addr) (var4 Heap) (var5 Int) (var6 Addr) (var7 Int) (var8 Addr) (var9 Addr) (var10 Heap)) (or (not (and (inv_main82 var10 var9 var8 var7 var6) (and (and (not (= var5 1)) (is-O_TSLL (read var10 var8))) (and (and (and (and (and (= var4 var10) (= var3 var9)) (= var2 var8)) (= var1 var7)) (= var0 var6)) (= var5 (data (getTSLL (read var10 var8)))))))) (inv_main86 var4 var3 var2 var1 var0))))
(assert (forall ((var0 Int) (var1 Addr) (var2 Int) (var3 Addr) (var4 Addr) (var5 Heap) (var6 Addr) (var7 Int) (var8 Addr) (var9 Addr) (var10 Heap)) (or (not (and (inv_main63 var10 var9 var8 var7 var6) (and (is-O_TSLL (read var10 var8)) (and (and (and (and (and (= var5 var10) (= var4 var9)) (= var3 var8)) (= var2 var7)) (= var1 var6)) (= var0 (data (getTSLL (read var10 var8)))))))) (inv_main66 var5 var4 var3 var0 var1))))
(assert (forall ((var0 Addr) (var1 TSLL) (var2 Heap) (var3 Int) (var4 Addr) (var5 Addr) (var6 Heap) (var7 Addr) (var8 Int) (var9 Addr) (var10 Addr) (var11 Heap)) (or (not (and (inv_main31 var11 var10 var9 var8) (and (and (and (and (= var7 nullAddr) (is-O_TSLL (read var11 var9))) (and (and (and (and (= var6 var11) (= var5 var10)) (= var4 var9)) (= var3 var8)) (= var7 (next (getTSLL (read var11 var9)))))) (= var2 (newHeap (alloc var6 (O_TSLL var1))))) (= var0 (newAddr (alloc var6 (O_TSLL var1))))))) (inv_main49 var2 var5 var4 var3 var0))))
(assert (forall ((var0 Addr) (var1 TSLL) (var2 Heap) (var3 Int) (var4 Addr) (var5 Addr) (var6 Heap) (var7 Addr) (var8 Int) (var9 Int) (var10 Addr) (var11 Addr) (var12 Heap)) (or (not (and (inv_main31 var12 var11 var10 var9) (and (and (and (= var8 0) (and (and (not (= var7 nullAddr)) (is-O_TSLL (read var12 var10))) (and (and (and (and (= var6 var12) (= var5 var11)) (= var4 var10)) (= var3 var9)) (= var7 (next (getTSLL (read var12 var10))))))) (= var2 (newHeap (alloc var6 (O_TSLL var1))))) (= var0 (newAddr (alloc var6 (O_TSLL var1))))))) (inv_main49 var2 var5 var4 var3 var0))))
(assert (forall ((var0 Addr) (var1 Heap)) (not (and (inv_main3 var1 var0) (not (is-O_TSLL (read var1 var0)))))))
(assert (forall ((var0 Addr) (var1 Heap)) (not (and (inv_main3 var1 var0) (and (is-O_TSLL (read var1 var0)) (not (is-O_TSLL (read var1 var0))))))))
(assert (forall ((var0 Addr) (var1 Heap)) (not (and (inv_main4 var1 var0) (not (is-O_TSLL (read var1 var0)))))))
(assert (forall ((var0 Addr) (var1 Heap)) (not (and (inv_main4 var1 var0) (and (is-O_TSLL (read var1 var0)) (not (is-O_TSLL (read var1 var0))))))))
(assert (forall ((var0 Addr) (var1 Heap)) (not (and (inv_main5 var1 var0) (not (is-O_TSLL (read var1 var0)))))))
(assert (forall ((var0 Addr) (var1 Heap)) (not (and (inv_main5 var1 var0) (and (is-O_TSLL (read var1 var0)) (not (is-O_TSLL (read var1 var0))))))))
(assert (forall ((var0 Addr) (var1 Int) (var2 Addr) (var3 Addr) (var4 Heap)) (not (and (inv_main13 var4 var3 var2 var1 var0) (not (is-O_TSLL (read var4 var2)))))))
(assert (forall ((var0 Addr) (var1 Int) (var2 Addr) (var3 Addr) (var4 Heap)) (not (and (inv_main13 var4 var3 var2 var1 var0) (and (is-O_TSLL (read var4 var2)) (not (is-O_TSLL (read var4 var2))))))))
(assert (forall ((var0 Int) (var1 Addr) (var2 Addr) (var3 Heap)) (not (and (inv_main12 var3 var2 var1 var0) (not (is-O_TSLL (read var3 var1)))))))
(assert (forall ((var0 Int) (var1 Addr) (var2 Addr) (var3 Heap)) (not (and (inv_main12 var3 var2 var1 var0) (and (is-O_TSLL (read var3 var1)) (not (is-O_TSLL (read var3 (next (getTSLL (read var3 var1)))))))))))
(assert (forall ((var0 Int) (var1 Addr) (var2 Addr) (var3 Heap)) (not (and (inv_main12 var3 var2 var1 var0) (and (and (is-O_TSLL (read var3 var1)) (is-O_TSLL (read var3 (next (getTSLL (read var3 var1)))))) (not (is-O_TSLL (read var3 (next (getTSLL (read var3 var1)))))))))))
(assert (forall ((var0 Int) (var1 Addr) (var2 Addr) (var3 Heap)) (not (and (inv_main14 var3 var2 var1 var0) (not (is-O_TSLL (read var3 var1)))))))
(assert (forall ((var0 Int) (var1 Addr) (var2 Addr) (var3 Heap)) (not (and (inv_main15 var3 var2 var1 var0) (not (is-O_TSLL (read var3 var1)))))))
(assert (forall ((var0 Int) (var1 Addr) (var2 Addr) (var3 Heap)) (not (and (inv_main15 var3 var2 var1 var0) (and (is-O_TSLL (read var3 var1)) (not (is-O_TSLL (read var3 var1))))))))
(assert (forall ((var0 Int) (var1 Addr) (var2 Addr) (var3 Heap)) (not (and (inv_main22 var3 var2 var1 var0) (not (is-O_TSLL (read var3 var1)))))))
(assert (forall ((var0 Int) (var1 Addr) (var2 Addr) (var3 Heap)) (not (and (inv_main22 var3 var2 var1 var0) (and (is-O_TSLL (read var3 var1)) (not (is-O_TSLL (read var3 var1))))))))
(assert (forall ((var0 Int) (var1 Addr) (var2 Addr) (var3 Heap)) (not (and (inv_main23 var3 var2 var1 var0) (not (is-O_TSLL (read var3 var1)))))))
(assert (forall ((var0 Int) (var1 Addr) (var2 Addr) (var3 Heap)) (not (and (inv_main23 var3 var2 var1 var0) (and (is-O_TSLL (read var3 var1)) (not (is-O_TSLL (read var3 var1))))))))
(assert (forall ((var0 Int) (var1 Addr) (var2 Addr) (var3 Heap)) (not (inv_main27 var3 var2 var1 var0))))
(assert (forall ((var0 Int) (var1 Addr) (var2 Addr) (var3 Heap)) (not (and (inv_main30 var3 var2 var1 var0) (not (is-O_TSLL (read var3 var1)))))))
(assert (forall ((var0 Addr) (var1 Int) (var2 Addr) (var3 Addr) (var4 Heap)) (not (and (inv_main33 var4 var3 var2 var1 var0) (and (not (= var0 nullAddr)) (not (is-O_TSLL (read var4 var2))))))))
(assert (forall ((var0 Addr) (var1 Int) (var2 Addr) (var3 Addr) (var4 Heap)) (not (and (inv_main33 var4 var3 var2 var1 var0) (and (and (not (= var0 nullAddr)) (is-O_TSLL (read var4 var2))) (not (is-O_TSLL (read var4 (next (getTSLL (read var4 var2)))))))))))
(assert (forall ((var0 Int) (var1 Addr) (var2 Addr) (var3 Heap)) (not (and (inv_main32 var3 var2 var1 var0) (not (is-O_TSLL (read var3 var1)))))))
(assert (forall ((var0 Int) (var1 Addr) (var2 Addr) (var3 Heap)) (not (and (inv_main31 var3 var2 var1 var0) (not (is-O_TSLL (read var3 var1)))))))
(assert (forall ((var0 Int) (var1 Addr) (var2 Addr) (var3 Heap)) (not (and (inv_main38 var3 var2 var1 var0) (not (is-O_TSLL (read var3 var1)))))))
(assert (forall ((var0 Int) (var1 Addr) (var2 Addr) (var3 Heap)) (not (and (inv_main42 var3 var2 var1 var0) (not (is-O_TSLL (read var3 var1)))))))
(assert (forall ((var0 Int) (var1 Addr) (var2 Addr) (var3 Heap)) (not (inv_main45 var3 var2 var1 var0))))
(assert (forall ((var0 Addr) (var1 Int) (var2 Addr) (var3 Addr) (var4 Heap)) (not (and (inv_main49 var4 var3 var2 var1 var0) (not (is-O_TSLL (read var4 var0)))))))
(assert (forall ((var0 Addr) (var1 Int) (var2 Addr) (var3 Addr) (var4 Heap)) (not (and (inv_main49 var4 var3 var2 var1 var0) (and (is-O_TSLL (read var4 var0)) (not (is-O_TSLL (read var4 var0))))))))
(assert (forall ((var0 Addr) (var1 Int) (var2 Addr) (var3 Addr) (var4 Heap)) (not (and (inv_main50 var4 var3 var2 var1 var0) (not (is-O_TSLL (read var4 var0)))))))
(assert (forall ((var0 Addr) (var1 Int) (var2 Addr) (var3 Addr) (var4 Heap)) (not (and (inv_main50 var4 var3 var2 var1 var0) (and (is-O_TSLL (read var4 var0)) (not (is-O_TSLL (read var4 var0))))))))
(assert (forall ((var0 Addr) (var1 Int) (var2 Addr) (var3 Addr) (var4 Heap)) (not (and (inv_main51 var4 var3 var2 var1 var0) (not (is-O_TSLL (read var4 var0)))))))
(assert (forall ((var0 Addr) (var1 Int) (var2 Addr) (var3 Addr) (var4 Heap)) (not (and (inv_main51 var4 var3 var2 var1 var0) (and (is-O_TSLL (read var4 var0)) (not (is-O_TSLL (read var4 var0))))))))
(assert (forall ((var0 Addr) (var1 Int) (var2 Addr) (var3 Addr) (var4 Heap)) (not (and (inv_main52 var4 var3 var2 var1 var0) (not (is-O_TSLL (read var4 var2)))))))
(assert (forall ((var0 Addr) (var1 Int) (var2 Addr) (var3 Addr) (var4 Heap)) (not (and (inv_main54 var4 var3 var2 var1 var0) (not (is-O_TSLL (read var4 var2)))))))
(assert (forall ((var0 Addr) (var1 Int) (var2 Addr) (var3 Addr) (var4 Heap)) (not (and (inv_main54 var4 var3 var2 var1 var0) (and (is-O_TSLL (read var4 var2)) (not (is-O_TSLL (read var4 var2))))))))
(assert (forall ((var0 Addr) (var1 Int) (var2 Addr) (var3 Addr) (var4 Heap)) (not (and (inv_main55 var4 var3 var2 var1 var0) (not (is-O_TSLL (read var4 var2)))))))
(assert (forall ((var0 Addr) (var1 Int) (var2 Addr) (var3 Addr) (var4 Heap)) (not (and (inv_main55 var4 var3 var2 var1 var0) (and (is-O_TSLL (read var4 var2)) (not (is-O_TSLL (read var4 (next (getTSLL (read var4 var2)))))))))))
(assert (forall ((var0 Addr) (var1 Int) (var2 Addr) (var3 Addr) (var4 Heap)) (not (and (inv_main55 var4 var3 var2 var1 var0) (and (and (is-O_TSLL (read var4 var2)) (is-O_TSLL (read var4 (next (getTSLL (read var4 var2)))))) (not (is-O_TSLL (read var4 (next (getTSLL (read var4 var2)))))))))))
(assert (forall ((var0 Addr) (var1 Int) (var2 Addr) (var3 Addr) (var4 Heap)) (not (and (inv_main57 var4 var3 var2 var1 var0) (not (is-O_TSLL (read var4 var2)))))))
(assert (forall ((var0 Addr) (var1 Addr) (var2 Int) (var3 Addr) (var4 Addr) (var5 Heap)) (not (and (inv_main59 var5 var4 var3 var2 var1 var0) (not (is-O_TSLL (read var5 var1)))))))
(assert (forall ((var0 Addr) (var1 Addr) (var2 Int) (var3 Addr) (var4 Addr) (var5 Heap)) (not (and (inv_main59 var5 var4 var3 var2 var1 var0) (and (is-O_TSLL (read var5 var1)) (not (is-O_TSLL (read var5 var1))))))))
(assert (forall ((var0 Addr) (var1 Int) (var2 Addr) (var3 Addr) (var4 Heap)) (not (and (inv_main58 var4 var3 var2 var1 var0) (not (is-O_TSLL (read var4 var2)))))))
(assert (forall ((var0 Addr) (var1 Int) (var2 Addr) (var3 Addr) (var4 Heap)) (not (and (inv_main58 var4 var3 var2 var1 var0) (and (is-O_TSLL (read var4 var2)) (not (is-O_TSLL (read var4 var2))))))))
(assert (forall ((var0 Addr) (var1 Int) (var2 Addr) (var3 Addr) (var4 Heap)) (not (and (inv_main61 var4 var3 var2 var1 var0) (and (not (= var2 nullAddr)) (not (is-O_TSLL (read var4 var2))))))))
(assert (forall ((var0 Addr) (var1 Int) (var2 Addr) (var3 Addr) (var4 Heap)) (not (and (inv_main63 var4 var3 var2 var1 var0) (not (is-O_TSLL (read var4 var2)))))))
(assert (forall ((var0 Addr) (var1 Int) (var2 Addr) (var3 Addr) (var4 Heap)) (not (and (inv_main66 var4 var3 var2 var1 var0) (not (is-O_TSLL (read var4 var2)))))))
(assert (forall ((var0 Addr) (var1 Int) (var2 Addr) (var3 Addr) (var4 Heap)) (not (inv_main70 var4 var3 var2 var1 var0))))
(assert (forall ((var0 Addr) (var1 Int) (var2 Addr) (var3 Addr) (var4 Heap)) (not (inv_main76 var4 var3 var2 var1 var0))))
(assert (forall ((var0 Addr) (var1 Int) (var2 Addr) (var3 Addr) (var4 Heap)) (not (and (inv_main74 var4 var3 var2 var1 var0) (not (is-O_TSLL (read var4 var2)))))))
(assert (forall ((var0 Addr) (var1 Int) (var2 Addr) (var3 Addr) (var4 Heap)) (not (and (inv_main81 var4 var3 var2 var1 var0) (not (is-O_TSLL (read var4 var2)))))))
(assert (forall ((var0 Addr) (var1 Int) (var2 Addr) (var3 Addr) (var4 Heap)) (not (and (inv_main82 var4 var3 var2 var1 var0) (not (is-O_TSLL (read var4 var2)))))))
(assert (forall ((var0 Addr) (var1 Int) (var2 Addr) (var3 Addr) (var4 Heap)) (not (inv_main86 var4 var3 var2 var1 var0))))
(assert (forall ((var0 Addr) (var1 Int) (var2 Addr) (var3 Addr) (var4 Heap)) (not (inv_main92 var4 var3 var2 var1 var0))))
(assert (forall ((var0 Addr) (var1 Int) (var2 Addr) (var3 Addr) (var4 Heap)) (not (and (inv_main90 var4 var3 var2 var1 var0) (not (is-O_TSLL (read var4 var2)))))))
(assert (forall ((var0 Addr) (var1 Int) (var2 Addr) (var3 Addr) (var4 Heap)) (not (and (inv_main99 var4 var3 var2 var1 var0) (not (is-O_TSLL (read var4 var2)))))))
(check-sat)
